branch-and-cut/resultados/I080/i080-204.sol
4492
27
15 21
3 53
1 37
4 64
37 67
58 13
7 35
1 58
2 11
62 22
58 12
14 24
9 68
37 29
68 16
11 22
8 29
64 6
37 53
58 5
53 21
64 21
53 24
22 24
10 62
58 35
68 67
