branch-and-cut/resultados/I080/i080-204.log

Gurobi 10.0.3 (linux64) logging started Fri Dec 15 18:30:55 2023

Set parameter LogFile to value "resultados/I080/i080-204.log"
Set parameter Cutoff to value 5393
Gurobi Optimizer version 10.0.3 build v10.0.3rc0 (linux64)

CPU model: Intel(R) Core(TM) i7-8650U CPU @ 1.90GHz, instruction set [SSE2|AVX|AVX2]
Thread count: 4 physical cores, 8 logical processors, using up to 8 threads

Optimize a model with 16 rows, 120 columns and 45 nonzeros
Model fingerprint: 0xdf450f5f
Variable types: 0 continuous, 120 integer (120 binary)
Coefficient statistics:
  Matrix range     [1e+00, 1e+00]
  Objective range  [9e+01, 3e+02]
  Bounds range     [1e+00, 1e+00]
  RHS range        [1e+00, 1e+00]
Presolve removed 4 rows and 4 columns
Presolve time: 0.00s
Presolved: 12 rows, 116 columns, 41 nonzeros
Variable types: 0 continuous, 116 integer (116 binary)

Root relaxation: objective 3.064000e+03, 12 iterations, 0.00 seconds (0.00 work units)

    Nodes    |    Current Node    |     Objective Bounds      |     Work
 Expl Unexpl |  Obj  Depth IntInf | Incumbent    BestBd   Gap | It/Node Time

     0     0 3064.00000    0    -          - 3064.00000      -     -    0s
     0     0 3282.00000    0    6          - 3282.00000      -     -    0s
     0     0 3587.00000    0    -          - 3587.00000      -     -    0s
     0     0 3781.50000    0    6          - 3781.50000      -     -    0s
     0     0 3895.41667    0   13          - 3895.41667      -     -    0s
     0     0 3929.50000    0   11          - 3929.50000      -     -    0s
     0     0 3995.50000    0   16          - 3995.50000      -     -    0s
     0     0 4023.66667    0   21          - 4023.66667      -     -    0s
     0     0 4072.14286    0   17          - 4072.14286      -     -    0s
     0     2 4107.40909    0   22          - 4107.40909      -     -    0s
  1080   866 4529.00000   16   17          - 4259.81481      -  12.2    5s
H 1181   897                    5323.0000000 4300.35239  19.2%  14.8    6s
H 1281   927                    5188.0000000 4300.35239  17.1%  17.0    7s
H 1284   886                    4991.0000000 4300.35239  13.8%  17.1    7s
H 1301   853                    4492.0000000 4300.35239  4.27%  17.2    7s
  1697   782     cutoff   26      4492.00000 4375.75825  2.59%  18.9   10s
  2571   365     cutoff   20      4492.00000 4456.10006  0.80%  22.0   15s

Cutting planes:
  User: 661
  Gomory: 5
  MIR: 7
  Flow cover: 31
  Zero half: 17
  Lazy constraints: 244

Explored 2774 nodes (59149 simplex iterations) in 15.30 seconds (2.29 work units)
Thread count was 8 (of 8 available processors)

Solution count 4: 4492 4991 5188 5323 

Optimal solution found (tolerance 1.00e-04)
Best objective 4.492000000000e+03, best bound 4.492000000000e+03, gap 0.0000%

User-callback calls 6567, time in user-callback 11.67 sec
